(set-logic QF_FP)
(set-info :smt-lib-version 2.0)
(set-info :category "crafted")
(set-info :source |Alberto Griggio <griggio@fbk.eu>. These benchmarks were used for the evaluation in the following paper: L. Haller, A. Griggio, M. Brain, D. Kroening: Deciding floating-point logic with systematic abstraction. FMCAD 2012. Real-numbered literals have been automatically translated by MathSAT|)
(set-info :status unknown)
;; MathSAT API call trace
;; generated on 05/20/15 17:24:54

(declare-fun x () (_ FloatingPoint 11 53))
(declare-fun y () (_ FloatingPoint 11 53))
(declare-fun z () (_ FloatingPoint 11 53))
(define-fun _t_9 () (_ FloatingPoint 11 53) z)
(define-fun _t_10 () (_ FloatingPoint 11 53) y)
(define-fun _t_11 () Bool (fp.eq _t_9 _t_10))
(assert _t_11)
(define-fun _t_3 () RoundingMode RNE)
(define-fun _t_12 () (_ FloatingPoint 11 53) x)
(define-fun _t_13 () (_ FloatingPoint 11 53) (fp.mul _t_3 _t_9 _t_10))
(define-fun _t_14 () Bool (fp.eq _t_12 _t_13))
(assert _t_14)
(define-fun _t_16 () (_ FloatingPoint 11 53) (fp #b0 #b00000000000 #b0000000000000000000000000000000000000000000000000000))
(define-fun _t_17 () Bool (fp.lt _t_12 _t_16))
(assert _t_17)
(check-sat)
